NAME : mar30_1000_1
COMMENT : Data set with 30 points
COMMENT : CIn-UFPE
COMMENT : Contributed by Marcelo Lacerda
TYPE : TSP
DIMENSION : 30
EDGE_WEIGHT_TYPE : EUC_2D
NODE_COORD_SECTION
1 787 509
2 351 797
3 899 61
4 722 216
5 236 381
6 540 327
7 512 692
8 451 889
9 924 51
10 741 216
11 254 690
12 734 732
13 372 684
14 593 182
15 906 35
16 590 247
17 77 689
18 156 681
19 86 883
20 730 671
21 687 210
22 807 485
23 287 285
24 71 325
25 618 347
26 30 504
27 819 809
28 468 343
29 18 780
30 920 59
EOF
